Route #1: 35 40 61 54 41 37 45 65 7 43
Route #2: 10 64 16 63 62 58 4 31
Route #3: 34 42 17 66 48 67 38 60 11 44
Route #4: 3 24 25 5 15 2 20 36 21 8 47 50 12 51
Route #5: 55 59 6 29 14 46 13 53 23 57
Route #6: 27 33 28 52 9 30
Route #7: 26 22 56 49 39 32 19 18
Route #8: 1
Route #9: 
Route #10: 
cost 1268.3348088321459
